[VALIDATOR STDOUT]
Checking plan: /home/jfan5/Safety-gen/runs/benchmark/optic/ferry_20260201_171235/ferry/optic_results/ferry-l25-c13-s25001.plan
Plan executed successfully - checking goal
Plan valid
Final value: 63 

Successful plans:
Value: 63
 /home/jfan5/Safety-gen/runs/benchmark/optic/ferry_20260201_171235/ferry/optic_results/ferry-l25-c13-s25001.plan 63
